&CONTROL
  calculation='scf',
  prefix='calc',
  pseudo_dir='/ccs/home/dpalmer3/qe-7.1/pseudo/',
  outdir='.',
  restart_mode='restart',
  tprnfor=.true.,
  etot_conv_thr=1d0,
  forc_conv_thr=0.0019446903957408628d00,
  max_seconds=86000d00,
/
&SYSTEM
  ibrav=0,
  celldm(1)=1.8897261245650618d0,
  nat=6,
  ntyp=3,
  ecutwfc=49.99997040410726d00,
  ecutrho=199.99988161642904d00,
  nbnd=36,
  occupations='fixed',
  smearing='fd',
  degauss=0.007349864494991328d00,
  input_dft='PBE',
  nosym=.false.,
  noinv=.false.,
  nosym_evc=.false.,
  no_t_rev=.false.,
/
&ELECTRONS
  diagonalization='david',
  conv_thr=7.349864494991327e-08,
  mixing_beta=0.7d00,
  electron_maxstep=100,
/
CELL_PARAMETERS alat
    3.175640000000000d0     0.000000000000000d0     0.000000000000000d0
   -1.587820000000000d0     2.750184913274015d0     0.000000000000000d0
    0.000000000000000d0     0.000000000000000d0    37.924999999999997d0
ATOMIC_SPECIES
Mo1 95.95d00 Mo.UPF
S1 32.06d00 S.UPF
Se1 78.971d00 Se.UPF
ATOMIC_POSITIONS {crystal}
Mo1      0.000000000000000d0     0.000000000000000d0     0.305471324983520d0
S1       0.666666666666667d0     0.333333333333333d0     0.347264337508240d0
S1       0.666666666666667d0     0.333333333333333d0     0.263678312458800d0
Mo1      0.666666666666667d0     0.333333333333333d0     0.472643375082399d0
Se1      0.333333333333333d0     0.666666666666667d0     0.516545814106790d0
Se1      0.333333333333333d0     0.666666666666667d0     0.428740936058009d0
K_POINTS automatic
15 15 1  0 0 0 
