&CONTROL
  calculation='nscf',
  prefix='calc',
  verbosity='high',
  pseudo_dir='/ccs/home/dpalmer3/qe-7.1/pseudo/',
  outdir='.',
  restart_mode='restart',
  etot_conv_thr=1d0,
  forc_conv_thr=0.0019446903957408628d00,
  max_seconds=86000d00,
/
&SYSTEM
  ibrav=0,
  celldm(1)=1.8897261245650618d0,
  nat=6,
  ntyp=4,
  ecutwfc=49.99997040410726d00,
  ecutrho=199.99988161642904d00,
  nbnd=53,
  occupations='fixed',
  smearing='fd',
  degauss=0.007349864494991328d00,
  input_dft='PBE',
  nosym=.false.,
  noinv=.false.,
  nosym_evc=.false.,
  no_t_rev=.false.,
/
&ELECTRONS
  diagonalization='david',
  conv_thr=7.349864494991327e-08,
  mixing_beta=0.7d00,
  electron_maxstep=100,
/
CELL_PARAMETERS alat
    3.343090000000000d0     0.000000000000000d0     0.000000000000000d0
   -1.671545000000000d0     2.895200867137719d0     0.000000000000000d0
    0.000000000000000d0     0.000000000000000d0    38.280000000000001d0
ATOMIC_SPECIES
Mo1 95.95d00 Mo.UPF
Se1 78.971d00 Se.UPF
W1 183.84d00 W.UPF
Te1 127.6d00 Te.UPF
ATOMIC_POSITIONS {crystal}
Mo1      0.000000000000000d0     0.000000000000000d0     0.304728317659352d0
Se1      0.666666666666667d0     0.333333333333333d0     0.348223615464995d0
Se1      0.666666666666667d0     0.333333333333333d0     0.261233019853710d0
W1       0.666666666666667d0     0.333333333333333d0     0.477533960292581d0
Te1      0.333333333333333d0     0.666666666666667d0     0.523249738766980d0
Te1      0.333333333333333d0     0.666666666666667d0     0.431818181818182d0
K_POINTS crystal
225
  -4.666666666666667e-01   -4.666666666666667e-01    0.000000000000000e+00    4.444444444444444e-03
  -4.666666666666667e-01   -4.000000000000000e-01    0.000000000000000e+00    4.444444444444444e-03
  -4.666666666666667e-01   -3.333333333333334e-01    0.000000000000000e+00    4.444444444444444e-03
  -4.666666666666667e-01   -2.666666666666667e-01    0.000000000000000e+00    4.444444444444444e-03
  -4.666666666666667e-01   -2.000000000000000e-01    0.000000000000000e+00    4.444444444444444e-03
  -4.666666666666667e-01   -1.333333333333334e-01    0.000000000000000e+00    4.444444444444444e-03
  -4.666666666666667e-01   -6.666666666666665e-02    0.000000000000000e+00    4.444444444444444e-03
  -4.666666666666667e-01    0.000000000000000e+00    0.000000000000000e+00    4.444444444444444e-03
  -4.666666666666667e-01    6.666666666666665e-02    0.000000000000000e+00    4.444444444444444e-03
  -4.666666666666667e-01    1.333333333333333e-01    0.000000000000000e+00    4.444444444444444e-03
  -4.666666666666667e-01    2.000000000000000e-01    0.000000000000000e+00    4.444444444444444e-03
  -4.666666666666667e-01    2.666666666666667e-01    0.000000000000000e+00    4.444444444444444e-03
  -4.666666666666667e-01    3.333333333333334e-01    0.000000000000000e+00    4.444444444444444e-03
  -4.666666666666667e-01    4.000000000000000e-01    0.000000000000000e+00    4.444444444444444e-03
  -4.666666666666667e-01    4.666666666666667e-01    0.000000000000000e+00    4.444444444444444e-03
  -4.000000000000000e-01   -4.666666666666667e-01    0.000000000000000e+00    4.444444444444444e-03
  -4.000000000000000e-01   -4.000000000000000e-01    0.000000000000000e+00    4.444444444444444e-03
  -4.000000000000000e-01   -3.333333333333334e-01    0.000000000000000e+00    4.444444444444444e-03
  -4.000000000000000e-01   -2.666666666666667e-01    0.000000000000000e+00    4.444444444444444e-03
  -4.000000000000000e-01   -2.000000000000000e-01    0.000000000000000e+00    4.444444444444444e-03
  -4.000000000000000e-01   -1.333333333333334e-01    0.000000000000000e+00    4.444444444444444e-03
  -4.000000000000000e-01   -6.666666666666665e-02    0.000000000000000e+00    4.444444444444444e-03
  -4.000000000000000e-01    0.000000000000000e+00    0.000000000000000e+00    4.444444444444444e-03
  -4.000000000000000e-01    6.666666666666665e-02    0.000000000000000e+00    4.444444444444444e-03
  -4.000000000000000e-01    1.333333333333333e-01    0.000000000000000e+00    4.444444444444444e-03
  -4.000000000000000e-01    2.000000000000000e-01    0.000000000000000e+00    4.444444444444444e-03
  -4.000000000000000e-01    2.666666666666667e-01    0.000000000000000e+00    4.444444444444444e-03
  -4.000000000000000e-01    3.333333333333334e-01    0.000000000000000e+00    4.444444444444444e-03
  -4.000000000000000e-01    4.000000000000000e-01    0.000000000000000e+00    4.444444444444444e-03
  -4.000000000000000e-01    4.666666666666667e-01    0.000000000000000e+00    4.444444444444444e-03
  -3.333333333333334e-01   -4.666666666666667e-01    0.000000000000000e+00    4.444444444444444e-03
  -3.333333333333334e-01   -4.000000000000000e-01    0.000000000000000e+00    4.444444444444444e-03
  -3.333333333333334e-01   -3.333333333333334e-01    0.000000000000000e+00    4.444444444444444e-03
  -3.333333333333334e-01   -2.666666666666667e-01    0.000000000000000e+00    4.444444444444444e-03
  -3.333333333333334e-01   -2.000000000000000e-01    0.000000000000000e+00    4.444444444444444e-03
  -3.333333333333334e-01   -1.333333333333334e-01    0.000000000000000e+00    4.444444444444444e-03
  -3.333333333333334e-01   -6.666666666666665e-02    0.000000000000000e+00    4.444444444444444e-03
  -3.333333333333334e-01    0.000000000000000e+00    0.000000000000000e+00    4.444444444444444e-03
  -3.333333333333334e-01    6.666666666666665e-02    0.000000000000000e+00    4.444444444444444e-03
  -3.333333333333334e-01    1.333333333333333e-01    0.000000000000000e+00    4.444444444444444e-03
  -3.333333333333334e-01    2.000000000000000e-01    0.000000000000000e+00    4.444444444444444e-03
  -3.333333333333334e-01    2.666666666666667e-01    0.000000000000000e+00    4.444444444444444e-03
  -3.333333333333334e-01    3.333333333333334e-01    0.000000000000000e+00    4.444444444444444e-03
  -3.333333333333334e-01    4.000000000000000e-01    0.000000000000000e+00    4.444444444444444e-03
  -3.333333333333334e-01    4.666666666666667e-01    0.000000000000000e+00    4.444444444444444e-03
  -2.666666666666667e-01   -4.666666666666667e-01    0.000000000000000e+00    4.444444444444444e-03
  -2.666666666666667e-01   -4.000000000000000e-01    0.000000000000000e+00    4.444444444444444e-03
  -2.666666666666667e-01   -3.333333333333334e-01    0.000000000000000e+00    4.444444444444444e-03
  -2.666666666666667e-01   -2.666666666666667e-01    0.000000000000000e+00    4.444444444444444e-03
  -2.666666666666667e-01   -2.000000000000000e-01    0.000000000000000e+00    4.444444444444444e-03
  -2.666666666666667e-01   -1.333333333333334e-01    0.000000000000000e+00    4.444444444444444e-03
  -2.666666666666667e-01   -6.666666666666665e-02    0.000000000000000e+00    4.444444444444444e-03
  -2.666666666666667e-01    0.000000000000000e+00    0.000000000000000e+00    4.444444444444444e-03
  -2.666666666666667e-01    6.666666666666665e-02    0.000000000000000e+00    4.444444444444444e-03
  -2.666666666666667e-01    1.333333333333333e-01    0.000000000000000e+00    4.444444444444444e-03
  -2.666666666666667e-01    2.000000000000000e-01    0.000000000000000e+00    4.444444444444444e-03
  -2.666666666666667e-01    2.666666666666667e-01    0.000000000000000e+00    4.444444444444444e-03
  -2.666666666666667e-01    3.333333333333334e-01    0.000000000000000e+00    4.444444444444444e-03
  -2.666666666666667e-01    4.000000000000000e-01    0.000000000000000e+00    4.444444444444444e-03
  -2.666666666666667e-01    4.666666666666667e-01    0.000000000000000e+00    4.444444444444444e-03
  -2.000000000000000e-01   -4.666666666666667e-01    0.000000000000000e+00    4.444444444444444e-03
  -2.000000000000000e-01   -4.000000000000000e-01    0.000000000000000e+00    4.444444444444444e-03
  -2.000000000000000e-01   -3.333333333333334e-01    0.000000000000000e+00    4.444444444444444e-03
  -2.000000000000000e-01   -2.666666666666667e-01    0.000000000000000e+00    4.444444444444444e-03
  -2.000000000000000e-01   -2.000000000000000e-01    0.000000000000000e+00    4.444444444444444e-03
  -2.000000000000000e-01   -1.333333333333334e-01    0.000000000000000e+00    4.444444444444444e-03
  -2.000000000000000e-01   -6.666666666666665e-02    0.000000000000000e+00    4.444444444444444e-03
  -2.000000000000000e-01    0.000000000000000e+00    0.000000000000000e+00    4.444444444444444e-03
  -2.000000000000000e-01    6.666666666666665e-02    0.000000000000000e+00    4.444444444444444e-03
  -2.000000000000000e-01    1.333333333333333e-01    0.000000000000000e+00    4.444444444444444e-03
  -2.000000000000000e-01    2.000000000000000e-01    0.000000000000000e+00    4.444444444444444e-03
  -2.000000000000000e-01    2.666666666666667e-01    0.000000000000000e+00    4.444444444444444e-03
  -2.000000000000000e-01    3.333333333333334e-01    0.000000000000000e+00    4.444444444444444e-03
  -2.000000000000000e-01    4.000000000000000e-01    0.000000000000000e+00    4.444444444444444e-03
  -2.000000000000000e-01    4.666666666666667e-01    0.000000000000000e+00    4.444444444444444e-03
  -1.333333333333334e-01   -4.666666666666667e-01    0.000000000000000e+00    4.444444444444444e-03
  -1.333333333333334e-01   -4.000000000000000e-01    0.000000000000000e+00    4.444444444444444e-03
  -1.333333333333334e-01   -3.333333333333334e-01    0.000000000000000e+00    4.444444444444444e-03
  -1.333333333333334e-01   -2.666666666666667e-01    0.000000000000000e+00    4.444444444444444e-03
  -1.333333333333334e-01   -2.000000000000000e-01    0.000000000000000e+00    4.444444444444444e-03
  -1.333333333333334e-01   -1.333333333333334e-01    0.000000000000000e+00    4.444444444444444e-03
  -1.333333333333334e-01   -6.666666666666665e-02    0.000000000000000e+00    4.444444444444444e-03
  -1.333333333333334e-01    0.000000000000000e+00    0.000000000000000e+00    4.444444444444444e-03
  -1.333333333333334e-01    6.666666666666665e-02    0.000000000000000e+00    4.444444444444444e-03
  -1.333333333333334e-01    1.333333333333333e-01    0.000000000000000e+00    4.444444444444444e-03
  -1.333333333333334e-01    2.000000000000000e-01    0.000000000000000e+00    4.444444444444444e-03
  -1.333333333333334e-01    2.666666666666667e-01    0.000000000000000e+00    4.444444444444444e-03
  -1.333333333333334e-01    3.333333333333334e-01    0.000000000000000e+00    4.444444444444444e-03
  -1.333333333333334e-01    4.000000000000000e-01    0.000000000000000e+00    4.444444444444444e-03
  -1.333333333333334e-01    4.666666666666667e-01    0.000000000000000e+00    4.444444444444444e-03
  -6.666666666666665e-02   -4.666666666666667e-01    0.000000000000000e+00    4.444444444444444e-03
  -6.666666666666665e-02   -4.000000000000000e-01    0.000000000000000e+00    4.444444444444444e-03
  -6.666666666666665e-02   -3.333333333333334e-01    0.000000000000000e+00    4.444444444444444e-03
  -6.666666666666665e-02   -2.666666666666667e-01    0.000000000000000e+00    4.444444444444444e-03
  -6.666666666666665e-02   -2.000000000000000e-01    0.000000000000000e+00    4.444444444444444e-03
  -6.666666666666665e-02   -1.333333333333334e-01    0.000000000000000e+00    4.444444444444444e-03
  -6.666666666666665e-02   -6.666666666666665e-02    0.000000000000000e+00    4.444444444444444e-03
  -6.666666666666665e-02    0.000000000000000e+00    0.000000000000000e+00    4.444444444444444e-03
  -6.666666666666665e-02    6.666666666666665e-02    0.000000000000000e+00    4.444444444444444e-03
  -6.666666666666665e-02    1.333333333333333e-01    0.000000000000000e+00    4.444444444444444e-03
  -6.666666666666665e-02    2.000000000000000e-01    0.000000000000000e+00    4.444444444444444e-03
  -6.666666666666665e-02    2.666666666666667e-01    0.000000000000000e+00    4.444444444444444e-03
  -6.666666666666665e-02    3.333333333333334e-01    0.000000000000000e+00    4.444444444444444e-03
  -6.666666666666665e-02    4.000000000000000e-01    0.000000000000000e+00    4.444444444444444e-03
  -6.666666666666665e-02    4.666666666666667e-01    0.000000000000000e+00    4.444444444444444e-03
   0.000000000000000e+00   -4.666666666666667e-01    0.000000000000000e+00    4.444444444444444e-03
   0.000000000000000e+00   -4.000000000000000e-01    0.000000000000000e+00    4.444444444444444e-03
   0.000000000000000e+00   -3.333333333333334e-01    0.000000000000000e+00    4.444444444444444e-03
   0.000000000000000e+00   -2.666666666666667e-01    0.000000000000000e+00    4.444444444444444e-03
   0.000000000000000e+00   -2.000000000000000e-01    0.000000000000000e+00    4.444444444444444e-03
   0.000000000000000e+00   -1.333333333333334e-01    0.000000000000000e+00    4.444444444444444e-03
   0.000000000000000e+00   -6.666666666666665e-02    0.000000000000000e+00    4.444444444444444e-03
   0.000000000000000e+00    0.000000000000000e+00    0.000000000000000e+00    4.444444444444444e-03
   0.000000000000000e+00    6.666666666666665e-02    0.000000000000000e+00    4.444444444444444e-03
   0.000000000000000e+00    1.333333333333333e-01    0.000000000000000e+00    4.444444444444444e-03
   0.000000000000000e+00    2.000000000000000e-01    0.000000000000000e+00    4.444444444444444e-03
   0.000000000000000e+00    2.666666666666667e-01    0.000000000000000e+00    4.444444444444444e-03
   0.000000000000000e+00    3.333333333333334e-01    0.000000000000000e+00    4.444444444444444e-03
   0.000000000000000e+00    4.000000000000000e-01    0.000000000000000e+00    4.444444444444444e-03
   0.000000000000000e+00    4.666666666666667e-01    0.000000000000000e+00    4.444444444444444e-03
   6.666666666666665e-02   -4.666666666666667e-01    0.000000000000000e+00    4.444444444444444e-03
   6.666666666666665e-02   -4.000000000000000e-01    0.000000000000000e+00    4.444444444444444e-03
   6.666666666666665e-02   -3.333333333333334e-01    0.000000000000000e+00    4.444444444444444e-03
   6.666666666666665e-02   -2.666666666666667e-01    0.000000000000000e+00    4.444444444444444e-03
   6.666666666666665e-02   -2.000000000000000e-01    0.000000000000000e+00    4.444444444444444e-03
   6.666666666666665e-02   -1.333333333333334e-01    0.000000000000000e+00    4.444444444444444e-03
   6.666666666666665e-02   -6.666666666666665e-02    0.000000000000000e+00    4.444444444444444e-03
   6.666666666666665e-02    0.000000000000000e+00    0.000000000000000e+00    4.444444444444444e-03
   6.666666666666665e-02    6.666666666666665e-02    0.000000000000000e+00    4.444444444444444e-03
   6.666666666666665e-02    1.333333333333333e-01    0.000000000000000e+00    4.444444444444444e-03
   6.666666666666665e-02    2.000000000000000e-01    0.000000000000000e+00    4.444444444444444e-03
   6.666666666666665e-02    2.666666666666667e-01    0.000000000000000e+00    4.444444444444444e-03
   6.666666666666665e-02    3.333333333333334e-01    0.000000000000000e+00    4.444444444444444e-03
   6.666666666666665e-02    4.000000000000000e-01    0.000000000000000e+00    4.444444444444444e-03
   6.666666666666665e-02    4.666666666666667e-01    0.000000000000000e+00    4.444444444444444e-03
   1.333333333333333e-01   -4.666666666666667e-01    0.000000000000000e+00    4.444444444444444e-03
   1.333333333333333e-01   -4.000000000000000e-01    0.000000000000000e+00    4.444444444444444e-03
   1.333333333333333e-01   -3.333333333333334e-01    0.000000000000000e+00    4.444444444444444e-03
   1.333333333333333e-01   -2.666666666666667e-01    0.000000000000000e+00    4.444444444444444e-03
   1.333333333333333e-01   -2.000000000000000e-01    0.000000000000000e+00    4.444444444444444e-03
   1.333333333333333e-01   -1.333333333333334e-01    0.000000000000000e+00    4.444444444444444e-03
   1.333333333333333e-01   -6.666666666666665e-02    0.000000000000000e+00    4.444444444444444e-03
   1.333333333333333e-01    0.000000000000000e+00    0.000000000000000e+00    4.444444444444444e-03
   1.333333333333333e-01    6.666666666666665e-02    0.000000000000000e+00    4.444444444444444e-03
   1.333333333333333e-01    1.333333333333333e-01    0.000000000000000e+00    4.444444444444444e-03
   1.333333333333333e-01    2.000000000000000e-01    0.000000000000000e+00    4.444444444444444e-03
   1.333333333333333e-01    2.666666666666667e-01    0.000000000000000e+00    4.444444444444444e-03
   1.333333333333333e-01    3.333333333333334e-01    0.000000000000000e+00    4.444444444444444e-03
   1.333333333333333e-01    4.000000000000000e-01    0.000000000000000e+00    4.444444444444444e-03
   1.333333333333333e-01    4.666666666666667e-01    0.000000000000000e+00    4.444444444444444e-03
   2.000000000000000e-01   -4.666666666666667e-01    0.000000000000000e+00    4.444444444444444e-03
   2.000000000000000e-01   -4.000000000000000e-01    0.000000000000000e+00    4.444444444444444e-03
   2.000000000000000e-01   -3.333333333333334e-01    0.000000000000000e+00    4.444444444444444e-03
   2.000000000000000e-01   -2.666666666666667e-01    0.000000000000000e+00    4.444444444444444e-03
   2.000000000000000e-01   -2.000000000000000e-01    0.000000000000000e+00    4.444444444444444e-03
   2.000000000000000e-01   -1.333333333333334e-01    0.000000000000000e+00    4.444444444444444e-03
   2.000000000000000e-01   -6.666666666666665e-02    0.000000000000000e+00    4.444444444444444e-03
   2.000000000000000e-01    0.000000000000000e+00    0.000000000000000e+00    4.444444444444444e-03
   2.000000000000000e-01    6.666666666666665e-02    0.000000000000000e+00    4.444444444444444e-03
   2.000000000000000e-01    1.333333333333333e-01    0.000000000000000e+00    4.444444444444444e-03
   2.000000000000000e-01    2.000000000000000e-01    0.000000000000000e+00    4.444444444444444e-03
   2.000000000000000e-01    2.666666666666667e-01    0.000000000000000e+00    4.444444444444444e-03
   2.000000000000000e-01    3.333333333333334e-01    0.000000000000000e+00    4.444444444444444e-03
   2.000000000000000e-01    4.000000000000000e-01    0.000000000000000e+00    4.444444444444444e-03
   2.000000000000000e-01    4.666666666666667e-01    0.000000000000000e+00    4.444444444444444e-03
   2.666666666666667e-01   -4.666666666666667e-01    0.000000000000000e+00    4.444444444444444e-03
   2.666666666666667e-01   -4.000000000000000e-01    0.000000000000000e+00    4.444444444444444e-03
   2.666666666666667e-01   -3.333333333333334e-01    0.000000000000000e+00    4.444444444444444e-03
   2.666666666666667e-01   -2.666666666666667e-01    0.000000000000000e+00    4.444444444444444e-03
   2.666666666666667e-01   -2.000000000000000e-01    0.000000000000000e+00    4.444444444444444e-03
   2.666666666666667e-01   -1.333333333333334e-01    0.000000000000000e+00    4.444444444444444e-03
   2.666666666666667e-01   -6.666666666666665e-02    0.000000000000000e+00    4.444444444444444e-03
   2.666666666666667e-01    0.000000000000000e+00    0.000000000000000e+00    4.444444444444444e-03
   2.666666666666667e-01    6.666666666666665e-02    0.000000000000000e+00    4.444444444444444e-03
   2.666666666666667e-01    1.333333333333333e-01    0.000000000000000e+00    4.444444444444444e-03
   2.666666666666667e-01    2.000000000000000e-01    0.000000000000000e+00    4.444444444444444e-03
   2.666666666666667e-01    2.666666666666667e-01    0.000000000000000e+00    4.444444444444444e-03
   2.666666666666667e-01    3.333333333333334e-01    0.000000000000000e+00    4.444444444444444e-03
   2.666666666666667e-01    4.000000000000000e-01    0.000000000000000e+00    4.444444444444444e-03
   2.666666666666667e-01    4.666666666666667e-01    0.000000000000000e+00    4.444444444444444e-03
   3.333333333333334e-01   -4.666666666666667e-01    0.000000000000000e+00    4.444444444444444e-03
   3.333333333333334e-01   -4.000000000000000e-01    0.000000000000000e+00    4.444444444444444e-03
   3.333333333333334e-01   -3.333333333333334e-01    0.000000000000000e+00    4.444444444444444e-03
   3.333333333333334e-01   -2.666666666666667e-01    0.000000000000000e+00    4.444444444444444e-03
   3.333333333333334e-01   -2.000000000000000e-01    0.000000000000000e+00    4.444444444444444e-03
   3.333333333333334e-01   -1.333333333333334e-01    0.000000000000000e+00    4.444444444444444e-03
   3.333333333333334e-01   -6.666666666666665e-02    0.000000000000000e+00    4.444444444444444e-03
   3.333333333333334e-01    0.000000000000000e+00    0.000000000000000e+00    4.444444444444444e-03
   3.333333333333334e-01    6.666666666666665e-02    0.000000000000000e+00    4.444444444444444e-03
   3.333333333333334e-01    1.333333333333333e-01    0.000000000000000e+00    4.444444444444444e-03
   3.333333333333334e-01    2.000000000000000e-01    0.000000000000000e+00    4.444444444444444e-03
   3.333333333333334e-01    2.666666666666667e-01    0.000000000000000e+00    4.444444444444444e-03
   3.333333333333334e-01    3.333333333333334e-01    0.000000000000000e+00    4.444444444444444e-03
   3.333333333333334e-01    4.000000000000000e-01    0.000000000000000e+00    4.444444444444444e-03
   3.333333333333334e-01    4.666666666666667e-01    0.000000000000000e+00    4.444444444444444e-03
   4.000000000000000e-01   -4.666666666666667e-01    0.000000000000000e+00    4.444444444444444e-03
   4.000000000000000e-01   -4.000000000000000e-01    0.000000000000000e+00    4.444444444444444e-03
   4.000000000000000e-01   -3.333333333333334e-01    0.000000000000000e+00    4.444444444444444e-03
   4.000000000000000e-01   -2.666666666666667e-01    0.000000000000000e+00    4.444444444444444e-03
   4.000000000000000e-01   -2.000000000000000e-01    0.000000000000000e+00    4.444444444444444e-03
   4.000000000000000e-01   -1.333333333333334e-01    0.000000000000000e+00    4.444444444444444e-03
   4.000000000000000e-01   -6.666666666666665e-02    0.000000000000000e+00    4.444444444444444e-03
   4.000000000000000e-01    0.000000000000000e+00    0.000000000000000e+00    4.444444444444444e-03
   4.000000000000000e-01    6.666666666666665e-02    0.000000000000000e+00    4.444444444444444e-03
   4.000000000000000e-01    1.333333333333333e-01    0.000000000000000e+00    4.444444444444444e-03
   4.000000000000000e-01    2.000000000000000e-01    0.000000000000000e+00    4.444444444444444e-03
   4.000000000000000e-01    2.666666666666667e-01    0.000000000000000e+00    4.444444444444444e-03
   4.000000000000000e-01    3.333333333333334e-01    0.000000000000000e+00    4.444444444444444e-03
   4.000000000000000e-01    4.000000000000000e-01    0.000000000000000e+00    4.444444444444444e-03
   4.000000000000000e-01    4.666666666666667e-01    0.000000000000000e+00    4.444444444444444e-03
   4.666666666666667e-01   -4.666666666666667e-01    0.000000000000000e+00    4.444444444444444e-03
   4.666666666666667e-01   -4.000000000000000e-01    0.000000000000000e+00    4.444444444444444e-03
   4.666666666666667e-01   -3.333333333333334e-01    0.000000000000000e+00    4.444444444444444e-03
   4.666666666666667e-01   -2.666666666666667e-01    0.000000000000000e+00    4.444444444444444e-03
   4.666666666666667e-01   -2.000000000000000e-01    0.000000000000000e+00    4.444444444444444e-03
   4.666666666666667e-01   -1.333333333333334e-01    0.000000000000000e+00    4.444444444444444e-03
   4.666666666666667e-01   -6.666666666666665e-02    0.000000000000000e+00    4.444444444444444e-03
   4.666666666666667e-01    0.000000000000000e+00    0.000000000000000e+00    4.444444444444444e-03
   4.666666666666667e-01    6.666666666666665e-02    0.000000000000000e+00    4.444444444444444e-03
   4.666666666666667e-01    1.333333333333333e-01    0.000000000000000e+00    4.444444444444444e-03
   4.666666666666667e-01    2.000000000000000e-01    0.000000000000000e+00    4.444444444444444e-03
   4.666666666666667e-01    2.666666666666667e-01    0.000000000000000e+00    4.444444444444444e-03
   4.666666666666667e-01    3.333333333333334e-01    0.000000000000000e+00    4.444444444444444e-03
   4.666666666666667e-01    4.000000000000000e-01    0.000000000000000e+00    4.444444444444444e-03
   4.666666666666667e-01    4.666666666666667e-01    0.000000000000000e+00    4.444444444444444e-03
