&CONTROL
  calculation='scf',
  prefix='calc',
  pseudo_dir='/ccs/home/dpalmer3/qe-7.1/pseudo/',
  outdir='.',
  restart_mode='restart',
  tprnfor=.true.,
  etot_conv_thr=1d0,
  forc_conv_thr=0.0019446903957408628d00,
  max_seconds=86000d00,
/
&SYSTEM
  ibrav=0,
  celldm(1)=1.8897261245650618d0,
  nat=6,
  ntyp=2,
  ecutwfc=49.99997040410726d00,
  ecutrho=199.99988161642904d00,
  nbnd=36,
  occupations='fixed',
  smearing='fd',
  degauss=0.007349864494991328d00,
  input_dft='PBE',
  nosym=.false.,
  noinv=.false.,
  nosym_evc=.false.,
  no_t_rev=.false.,
/
&ELECTRONS
  diagonalization='david',
  conv_thr=7.349864494991327e-08,
  mixing_beta=0.7d00,
  electron_maxstep=100,
/
CELL_PARAMETERS alat
    3.002000000000000d0     0.000000000000000d0     0.000000000000000d0
   -1.501000000000000d0     2.599808262160884d0     0.000000000000000d0
    0.000000000000000d0     0.000000000000000d0    37.844999999999999d0
ATOMIC_SPECIES
Mo1 95.95d00 Mo.UPF
S1 32.06d00 S.UPF
ATOMIC_POSITIONS {crystal}
Mo1      0.000000000000000d0     0.000000000000000d0     0.306117056414322d0
S1       0.666666666666667d0     0.333333333333333d0     0.347998414585811d0
S1       0.666666666666667d0     0.333333333333333d0     0.264235698242833d0
Mo1      0.666666666666667d0     0.333333333333333d0     0.471528603514335d0
S1       0.333333333333333d0     0.666666666666667d0     0.513409961685824d0
S1       0.333333333333333d0     0.666666666666667d0     0.429647245342846d0
K_POINTS automatic
15 15 1  0 0 0 
